HFSDDW
15	12	4
0	26	1	50	2	2	3	36
0	37	1	10	2	60	3	93
0	78	1	14	2	79	3	29
0	23	1	70	2	73	3	2
0	40	1	91	2	64	3	14
0	39	1	87	2	99	3	60
0	8	1	41	2	8	3	88
0	1	1	24	2	81	3	25
0	4	1	36	2	5	3	38
0	29	1	5	2	48	3	93
0	22	1	1	2	16	3	15
0	30	1	14	2	28	3	58
0	45	1	29	2	82	3	90
0	17	1	44	2	7	3	39
0	51	1	42	2	28	3	95
LBCmax: 312
RELDUE
-1	34	4	7
-1	164	8	3
-1	206	9	2
-1	134	5	4
-1	91	7	4
-1	132	9	1
-1	79	6	3
-1	193	6	8
-1	155	8	7
-1	98	5	9
-1	167	5	1
-1	96	6	8
-1	112	7	8
-1	164	4	9
-1	202	1	6
DDW
32	36
156	172
196	216
126	142
85	97
123	141
73	85
189	197
149	161
89	107
157	177
93	99
109	115
161	167
192	212
